NAME : amz0214.124561_124561.tour
COMMENT : Cost = 124561_124561
COMMENT : Found by LKH-AMZ [Keld Helsgaun] Sun May 11 12:20:08 2025
COMMENT : TW viol.: 0 #: 0
TYPE : TOUR
DIMENSION : 163
TOUR_SECTION
152
14
87
59
67
42
159
18
118
46
124
5
88
121
98
100
105
110
95
145
2
129
155
58
97
7
72
137
119
27
33
125
40
144
26
148
92
140
102
55
49
116
114
52
132
99
112
54
84
44
133
45
25
43
94
76
32
41
56
161
10
68
23
120
89
17
130
64
104
158
93
79
12
61
109
6
128
141
111
13
135
60
138
9
21
127
90
36
30
156
108
113
47
91
20
134
136
74
35
115
66
86
4
62
123
28
70
71
57
34
106
19
81
143
15
69
63
39
139
149
126
151
146
80
50
154
3
51
38
75
73
157
107
163
22
65
29
82
24
117
122
8
131
53
162
11
37
101
48
83
31
153
1
16
85
150
142
160
103
147
96
78
77
-1
EOF
